benchmarks/parity/parity40.qdimacs
p cnf 80 158
e 1 2 3 4 5 6 7 8 9 10 11 12 13 14 15 16 17 18 19 20 21 22 23 24 25 26 27 28 29 30 31 32 33 34 35 36 37 38 39 40 0
a 41 0
e 42 43 44 45 46 47 48 49 50 51 52 53 54 55 56 57 58 59 60 61 62 63 64 65 66 67 68 69 70 71 72 73 74 75 76 77 78 79 80 0
-1 -2 -42 0
-1 2 42 0
1 -2 42 0
1 2 -42 0
-42 -3 -43 0
-42 3 43 0
42 -3 43 0
42 3 -43 0
-43 -4 -44 0
-43 4 44 0
43 -4 44 0
43 4 -44 0
-44 -5 -45 0
-44 5 45 0
44 -5 45 0
44 5 -45 0
-45 -6 -46 0
-45 6 46 0
45 -6 46 0
45 6 -46 0
-46 -7 -47 0
-46 7 47 0
46 -7 47 0
46 7 -47 0
-47 -8 -48 0
-47 8 48 0
47 -8 48 0
47 8 -48 0
-48 -9 -49 0
-48 9 49 0
48 -9 49 0
48 9 -49 0
-49 -10 -50 0
-49 10 50 0
49 -10 50 0
49 10 -50 0
-50 -11 -51 0
-50 11 51 0
50 -11 51 0
50 11 -51 0
-51 -12 -52 0
-51 12 52 0
51 -12 52 0
51 12 -52 0
-52 -13 -53 0
-52 13 53 0
52 -13 53 0
52 13 -53 0
-53 -14 -54 0
-53 14 54 0
53 -14 54 0
53 14 -54 0
-54 -15 -55 0
-54 15 55 0
54 -15 55 0
54 15 -55 0
-55 -16 -56 0
-55 16 56 0
55 -16 56 0
55 16 -56 0
-56 -17 -57 0
-56 17 57 0
56 -17 57 0
56 17 -57 0
-57 -18 -58 0
-57 18 58 0
57 -18 58 0
57 18 -58 0
-58 -19 -59 0
-58 19 59 0
58 -19 59 0
58 19 -59 0
-59 -20 -60 0
-59 20 60 0
59 -20 60 0
59 20 -60 0
-60 -21 -61 0
-60 21 61 0
60 -21 61 0
60 21 -61 0
-61 -22 -62 0
-61 22 62 0
61 -22 62 0
61 22 -62 0
-62 -23 -63 0
-62 23 63 0
62 -23 63 0
62 23 -63 0
-63 -24 -64 0
-63 24 64 0
63 -24 64 0
63 24 -64 0
-64 -25 -65 0
-64 25 65 0
64 -25 65 0
64 25 -65 0
-65 -26 -66 0
-65 26 66 0
65 -26 66 0
65 26 -66 0
-66 -27 -67 0
-66 27 67 0
66 -27 67 0
66 27 -67 0
-67 -28 -68 0
-67 28 68 0
67 -28 68 0
67 28 -68 0
-68 -29 -69 0
-68 29 69 0
68 -29 69 0
68 29 -69 0
-69 -30 -70 0
-69 30 70 0
69 -30 70 0
69 30 -70 0
-70 -31 -71 0
-70 31 71 0
70 -31 71 0
70 31 -71 0
-71 -32 -72 0
-71 32 72 0
71 -32 72 0
71 32 -72 0
-72 -33 -73 0
-72 33 73 0
72 -33 73 0
72 33 -73 0
-73 -34 -74 0
-73 34 74 0
73 -34 74 0
73 34 -74 0
-74 -35 -75 0
-74 35 75 0
74 -35 75 0
74 35 -75 0
-75 -36 -76 0
-75 36 76 0
75 -36 76 0
75 36 -76 0
-76 -37 -77 0
-76 37 77 0
76 -37 77 0
76 37 -77 0
-77 -38 -78 0
-77 38 78 0
77 -38 78 0
77 38 -78 0
-78 -39 -79 0
-78 39 79 0
78 -39 79 0
78 39 -79 0
-79 -40 -80 0
-79 40 80 0
79 -40 80 0
79 40 -80 0
41 80 0
-41 -80 0
