logs/parity/ferpert/parity40.log
c array.sh: path:     /home/seidl/data/parity/parity40.qdimacs
c array.sh: name:     parity40
c array.sh: task:     5
c array.sh: host:     c3n03
c array.sh: uname:    Linux c3n03 4.15.0-135-generic #139-Ubuntu SMP Mon Jan 18 17:38:24 UTC 2021 x86_64 x86_64 x86_64 GNU/Linux
c array.sh: start:    Tue Feb 16 22:30:17 CET 2021
c array.sh: noturbo:  1
c array.sh: governor: 32 performance
c array.sh: tmp:      1%
c array.sh: unzipped: /tmp/local-unzipped-18834717-5-parity40.cnf
using tmp directory:
  /tmp
running QBF solver...

/home/seidl/cert_tests/bin/ferp-models/ijtihad/ijtihad --dependencies=0 --wit_per_call=-1 --cex_per_call=-1 --log_phi=/tmp/ferpcert3062expanded.cnf /tmp/local-unzipped-18834717-5-parity40.cnf
c Options after parsing: 
c cex_per_call = 18446744073709551615
c wit_per_call = 18446744073709551615
c warmup = 1
c warmup_randoms = 0
c trimming_phi = 0
c trimming_ksi = 2
c trimming_interval = 200
c memory_limit = 3000000
c MySolverv970-glucose
-1 
1 
c Number of calls is: 0
c Layers in PHI: 0
c Layers in KSI: 0
c Running Ijtihad loop
c sat_solver_phi calld 0 times, running for 0.00701 seconds.
c number of layers in PHI is 2
c sat_solver_ksi was running for 0 seconds.
c number of layers in KSI is 0
c mysolver was running for 0.007984 seconds.
s cnf 0
solving done with exit code 20

QBF solver OK

running SAT Solver...

/tmp/ferpcert3062expanded.cnf
s UNSATISFIABLE

PROOF GENERATION OK

checking unsat proof

resolved 1 root and 1 empty clause
trace-size2: 89673

TRACE CHECK OK

running toferp...

ferp-size: 92297
TOFERP OK

checking FERP PROOF...

FERP CHECK OK

extracting AIG ...

aig-size: 3139808
aig-header: aag 158367 79 0 1 158288
FERP CERT OK

merging  AIG into QBF ...

CERTCHECK OK

merged-cnf-header: p cnf 158919 476279
merged-cnf-size: 8549950
running SAT solver...

c ---- [ banner ] ------------------------------------------------------------
c
c KISSAT SAT Solver
c Copyright (c) 2019-2020 Armin Biere JKU Linz
c 
c Version 1.0.3 59813addcacc4d6fb880ebdd63685600475aa940
c gcc (Ubuntu 7.5.0-3ubuntu1~18.04) 7.5.0 -W -Wall -O3 -DNEMBEDDED -DNDEBUG -DNMETRICS -DNSTATISTICS
c Sun Feb 14 23:58:54 CET 2021 Linux cluster3 4.15.0-135-generic x86_64
c
c ---- [ parsing ] -----------------------------------------------------------
c
c opened and reading DIMACS file:
c 
c   /tmp/ferpcert_merged_cnf3062.cnf
c 
c parsed 'p cnf 158919 476279' header
c closing input after reading 8549950 bytes (8 MB)
c finished parsing after 0.12 seconds
c
c ---- [ solving ] -----------------------------------------------------------
c
c  seconds reductions redundant irredundant
c         MB   restarts    trail       variables
c          level  conflicts   glue           remaining
c
c *  0.12 25 0  0  0   0   0 0% 0 476277 158523 100%
c {  0.12 25 0  0  0   0   0 0% 0 476277 158523 100%
c i  0.16 28 107  0  0  40  39 82% 6 476277 158521 100%
c i  0.16 28 104  0  0  41  39 79% 5 476277 158517 100%
c i  0.16 28 115  0  0  65  62 51% 4 476277 158516 100%
c i  0.16 28 113  0  0  66  62 50% 4 476277 158512 100%
c i  0.16 28 84  0  0  90  83 37% 4 476277 158511 100%
c i  0.17 28 115  0  0 158 148 36% 3 476277 158510 100%
c i  0.20 28 117  0  9 226 209 36% 3 476277 158509 100%
c -  0.24 28 110  1 15 303 258 40% 3 475611 158509 100%
c i  0.25 28 99  1 15 339 292 37% 3 475611 158508 100%
c i  0.25 28 98  1 15 342 294 36% 3 475611 158507 100%
c i  0.26 28 97  1 15 396 338 39% 3 475611 158506 100%
c i  0.30 29 89  1 20 564 497 44% 3 475611 158505 100%
c i  0.30 29 89  1 20 567 499 44% 3 475611 158504 100%
c i  0.30 29 86  1 20 594 525 43% 3 475611 158503 100%
c i  0.30 29 84  1 20 609 537 42% 3 475611 158502 100%
c i  0.32 29 87  1 20 661 586 41% 3 475611 158501 100%
c i  0.33 29 104  1 20 773 692 44% 3 475611 158500 100%
c i  0.35 29 115  1 20 869 784 46% 3 475611 158498 100%
c
c  seconds   reductions redundant irredundant
c         MB     restarts     trail       variables
c           level   conflicts    glue           remaining
c
c -  0.37 29 116  2 26 903 783 46% 3 475576 158498 100%
c i  0.38 29 113  2 35 917 796 45% 3 475576 158497 100%
c i  0.40 29 106  2 45 969 844 42% 3 475576 158492 100%
c i  0.41 29 104  2 45 986 860 42% 3 475576 158491 100%
c i  0.41 29 102  2 45 996 869 41% 3 475576 158489 100%
c }  0.42 29 101  2 45 1000 873 41% 3 475576 158489 100%
c [  0.42 29 0  2 45 1000 873 0% 0 475576 158489 100%
c O  0.46 29 112  2 45 1002 875 51% 6 475381 158489 100%
c i  0.46 29 307  2 45 1021 891 21% 1 475381 158488 100%
c i  0.47 29 266  2 45 1049 912 19% 2 475381 158486 100%
c -  0.75 30 219  3 45 1803 1383 25% 5 475372 158486 100%
c ]  0.78 30 198  3 45 1889 1458 26% 5 475372 158486 100%
c {  0.78 30 101  3 45 1889 1458 41% 3 475372 158486 100%
c i  0.79 30 97  3 45 1973 1534 41% 3 475372 158485 100%
c i  0.81 30 92  3 45 2040 1594 39% 3 475372 158484 100%
c i  0.83 30 91  3 45 2068 1621 39% 3 475372 158483 100%
c i  0.86 30 91  3 45 2088 1639 39% 3 475372 158482 100%
c i  0.89 30 89  3 49 2156 1704 39% 3 475372 158476 100%
c i  0.89 30 88  3 57 2167 1713 39% 3 475372 158473 100%
c i  0.92 30 85  3 66 2215 1757 38% 3 475372 158472 100%
c
c  seconds  reductions  redundant  irredundant
c         MB    restarts       trail       variables
c          level   conflicts      glue           remaining
c
c i  0.93 30 84  3 66 2240 1773 38% 3 475372 158471 100%
c i  0.94 30 83  3 66 2264 1794 38% 3 475372 158469 100%
c i  0.94 30 81  3 66 2294 1823 37% 3 475372 158468 100%
c i  0.98 30 75  3 69 2406 1925 35% 3 475372 158467 100%
c i  0.98 30 75  3 74 2415 1933 35% 3 475372 158466 100%
c i  1.03 30 73  3 92 2451 1967 35% 3 475372 158465 100%
c d  1.09 30 71  3 108 2501 1957 34% 3 475250 158407 100%
c d  1.12 31 71  3 108 2501 1956 34% 3 475083 158343 100%
c 3  1.18 33 71  3 108 2501 5194 34% 3 475083 158343 100%
c t  1.21 33 71  3 108 2501 5193 34% 3 474050 158030 99%
c f  1.44 34 71  3 108 2501 94889 34% 3 473934 157540 99%
c f  1.45 34 71  3 108 2501 94891 34% 3 473831 157540 99%
c u  1.61 34 71  3 108 2501 94793 34% 3 473831 157540 99%
c v  1.65 34 71  3 108 2501 94847 34% 3 473831 157540 99%
c w  1.91 36 71  3 108 2501 95671 34% 3 473818 157490 99%
c d  1.96 35 71  3 108 2501 92735 34% 3 468116 154596 97%
c d  2.00 35 71  3 108 2501 92720 34% 3 468041 154558 97%
c i  2.03 35 71  3 108 2501 92720 34% 3 468041 154558 97%
c i  2.10 35 70  3 123 2542 92755 34% 3 468041 154555 97%
c i  2.11 35 68  3 123 2567 92778 33% 3 468041 154554 97%
c
c  seconds  reductions    redundant  irredundant
c         MB    restarts         trail       variables
c          level    conflicts       glue           remaining
c
c i  2.14 35 65  3 127 2652 92858 32% 3 468041 154553 97%
c i  2.15 35 65  3 127 2654 92859 32% 3 468041 154548 97%
c i  2.23 35 62  3 138 2764 92963 33% 3 468041 154543 97%
c i  2.32 35 60  3 158 2831 93027 33% 3 468041 154539 97%
c i  2.33 35 60  3 165 2844 93039 33% 3 468041 154538 97%
c i  2.34 35 59  3 170 2860 93053 32% 3 468041 154537 97%
c -  2.51 35 56  4 210 3003 4699 32% 3 465610 154537 97%
c I  2.51 35 56  4 211 3004 4700 32% 3 465610 154537 97%
c i  2.54 35 55  4 216 3116 4802 32% 3 465610 154536 97%
c i  2.54 35 55  4 216 3130 4814 32% 3 465610 154535 97%
c i  2.59 35 54  4 216 3281 4955 34% 3 465610 154534 97%
c i  2.84 35 49  4 251 3771 5408 35% 3 465610 154533 97%
c i  2.84 35 49  4 254 3778 5414 34% 3 465610 154532 97%
c i  2.88 35 48  4 258 3850 5484 34% 3 465610 154531 97%
c }  2.90 35 48  4 264 3892 5525 34% 3 465610 154531 97%
c [  2.90 35 198  4 264 3892 5525 26% 5 465610 154531 97%
c i  3.03 35 149  4 264 4166 5770 28% 5 465610 154530 97%
c -  3.37 35 159  5 264 4505 4290 43% 9 465588 154530 97%
c ]  3.91 35 135  5 265 5013 4755 61% 10 465588 154530 97%
c {  3.91 35 48  5 265 5013 4755 34% 3 465588 154530 97%
c
c  seconds  reductions   redundant  irredundant
c         MB    restarts        trail       variables
c          level    conflicts      glue           remaining
c
c i  3.96 35 49  5 274 5042 4782 34% 3 465588 154528 97%
c i  3.97 35 49  5 277 5048 4787 34% 3 465588 154527 97%
c i  3.98 35 49  5 286 5069 4807 34% 3 465588 154526 97%
c i  4.05 35 48  5 315 5145 4879 33% 3 465588 154525 97%
c i  4.12 35 48  5 336 5195 4928 33% 3 465588 154523 97%
c i  4.24 35 47  5 366 5311 5039 33% 3 465588 154522 97%
c i  4.24 35 47  5 366 5326 5052 33% 3 465588 154521 97%
c i  4.27 35 46  5 366 5375 5098 33% 3 465588 154520 97%
c i  4.40 35 43  5 370 5761 5468 35% 3 465588 154519 97%
c i  4.42 35 43  5 383 5790 5495 35% 3 465588 154515 97%
c i  4.68 35 41  5 459 5992 5688 34% 3 465588 154514 97%
c a  4.73 35 41  5 459 6004 5692 34% 3 465427 154485 97%
c B  4.74 35 41  5 459 6005 5693 34% 3 465427 154485 97%
c i  4.90 35 40  5 509 6173 5846 33% 4 465427 154474 97%
c -  5.13 35 41  6 554 6305 4179 34% 4 465395 154474 97%
c i  5.19 35 40  6 564 6451 4319 33% 4 465395 154473 97%
c i  5.26 35 42  6 577 6569 4426 33% 4 465395 154472 97%
c i  5.26 35 42  6 578 6570 4426 33% 4 465395 154467 97%
c i  5.47 35 42  6 619 6895 4740 34% 4 465395 154464 97%
c i  5.64 35 42  6 640 7123 4952 35% 4 465395 154462 97%
c
c  seconds  reductions   redundant  irredundant
c         MB    restarts        trail       variables
c          level    conflicts      glue           remaining
c
c i  5.72 35 42  6 653 7217 5040 35% 4 465395 154461 97%
c i  5.72 35 42  6 653 7227 5048 35% 4 465395 154460 97%
c i  5.77 35 41  6 653 7343 5152 35% 4 465395 154459 97%
c d  5.86 36 41  6 655 7501 5222 35% 4 465218 154378 97%
c d  5.89 36 41  6 655 7501 5220 35% 4 465086 154318 97%
c 3  5.97 34 41  6 655 7501 8808 35% 4 465086 154318 97%
c t  5.99 34 41  6 655 7501 8807 35% 4 464093 154106 97%
c f  6.21 37 41  6 655 7501 97849 35% 4 464050 153665 97%
c u  6.36 37 41  6 655 7501 98016 35% 4 464050 153665 97%
c v  6.41 37 41  6 655 7501 97882 35% 4 464050 153665 97%
c w  6.65 36 41  6 655 7501 100603 35% 4 463905 153601 97%
c d  6.69 37 41  6 655 7501 98313 35% 4 459340 151257 95%
c d  6.73 37 41  6 655 7501 98291 35% 4 459235 151205 95%
c i  6.73 37 41  6 655 7501 98291 35% 4 459235 151205 95%
c i  6.78 37 41  6 655 7568 98352 35% 4 459235 151204 95%
c -  7.39 37 42  7 736 8407 42397 37% 4 457221 151204 95%
c i  7.42 37 42  7 748 8444 42432 36% 4 457221 151201 95%
c i  7.47 37 42  7 748 8521 42506 36% 4 457221 151200 95%
c i  7.67 37 41  7 767 8838 42807 36% 4 457221 151199 95%
c i  7.70 37 41  7 772 8891 42857 36% 4 457221 151197 95%
c
c  seconds  reductions    redundant  irredundant
c         MB    restarts         trail       variables
c          level    conflicts       glue           remaining
c
c i  7.74 37 41  7 774 8925 42890 36% 4 457221 151196 95%
c i  7.99 37 40  7 821 9277 43231 35% 4 457221 151195 95%
c i  7.99 37 40  7 821 9278 43231 35% 4 457221 151194 95%
c i  8.11 37 41  7 831 9549 43491 35% 4 457221 151193 95%
c i  8.40 37 41  7 884 9824 43761 35% 4 457221 151190 95%
c i  8.44 37 41  7 885 9929 43862 36% 4 457221 151189 95%
c a  8.52 37 41  7 889 10006 43872 36% 4 457080 151159 95%
c W  8.71 38 41  7 889 10007 43873 36% 4 457080 151159 95%
c }  8.71 38 41  7 889 10014 43880 36% 4 457080 151159 95%
c [  8.71 38 135  7 889 10014 43880 61% 10 457080 151159 95%
c i  8.75 38 134  7 889 10107 43969 62% 9 457080 151158 95%
c i  8.77 38 133  7 889 10163 44019 62% 9 457080 151157 95%
c i  8.77 38 133  7 889 10165 44020 62% 9 457080 151156 95%
c i  8.77 38 133  7 889 10166 44020 62% 9 457080 151155 95%
c i  8.90 38 127  7 889 10512 44336 62% 9 457080 151154 95%
c i  8.92 38 125  7 889 10566 44388 61% 9 457080 151152 95%
c -  9.04 38 114  8 889 10807 8470 56% 9 457058 151152 95%
c i  9.26 38 92  8 890 11378 9003 47% 9 457058 151151 95%
c i  9.73 38 69  8 891 12179 9763 46% 8 457058 151150 95%
c i  9.75 38 69  8 891 12207 9788 46% 8 457058 151148 95%
c
c  seconds  reductions     redundant  irredundant
c         MB    restarts          trail       variables
c          level     conflicts       glue           remaining
c
c 2  9.94 38 68  8 891 12500 10057 47% 7 455303 150796 95%
c s  9.98 38 68  8 891 12500 10057 47% 7 454123 150774 95%
c e 11.03 36 68  8 891 12500 10057 47% 7 141594 20977 13%
c 2 11.03 36 68  8 891 12500 10057 47% 7 141593 20977 13%
c s 11.10 36 68  8 891 12500 10057 47% 7 141404 20977 13%
c e 11.13 36 68  8 891 12500 10057 47% 7 140388 20712 13%
c - 11.26 26 62  9 891 13507 1821 44% 7 140168 20712 13%
c d 11.71 26 57  9 892 15001 3185 45% 7 140087 20680 13%
c 3 11.79 26 57  9 892 15001 18993 45% 7 140076 20680 13%
c t 11.81 26 57  9 892 15001 18772 45% 7 138362 20664 13%
c f 11.84 27 57  9 892 15001 38675 45% 7 138328 20625 13%
c u 11.91 27 57  9 892 15001 38335 45% 7 138211 20625 13%
c v 11.93 27 57  9 892 15001 38281 45% 7 138211 20625 13%
c w 12.01 28 57  9 892 15001 38631 45% 7 138133 20625 13%
c d 12.02 28 57  9 892 15001 38253 45% 7 137723 20445 13%
c d 12.03 28 57  9 892 15001 38240 45% 7 137712 20442 13%
c i 12.03 28 57  9 892 15001 38240 45% 7 137712 20442 13%
c O 12.04 28 57  9 892 15008 38247 45% 7 137712 20442 13%
c - 12.44 28 57 10 894 16507 10022 51% 8 137553 20442 13%
c ] 12.79 28 55 10 894 18168 11331 51% 8 137553 20442 13%
c
c  seconds  reductions     redundant  irredundant
c         MB    restarts          trail       variables
c          level     conflicts       glue          remaining
c
c { 12.79 28 41 10 894 18168 11331 36% 4 137553 20442 13%
c - 13.02 29 41 11 1010 19807 8543 39% 4 137553 20442 13%
c B 13.21 29 39 11 1110 21009 9605 38% 4 137552 20442 13%
c i 13.41 29 38 11 1234 21950 10484 37% 4 137552 20441 13%
c - 13.68 29 36 12 1396 23407 7962 35% 4 137550 20441 13%
c d 13.96 29 35 12 1505 25001 9336 35% 4 137372 20382 13%
c d 13.97 29 35 12 1505 25001 9336 35% 4 137363 20379 13%
c 3 14.05 26 35 12 1505 25001 26753 35% 4 137352 20379 13%
c t 14.07 26 35 12 1505 25001 26447 35% 4 137119 20376 13%
c f 14.10 27 35 12 1505 25001 44522 35% 4 137085 20372 13%
c u 14.16 27 35 12 1505 25001 44381 35% 4 137085 20372 13%
c v 14.18 27 35 12 1505 25001 44312 35% 4 137085 20372 13%
c w 14.28 29 35 12 1505 25001 44638 35% 4 136498 20369 13%
c d 14.29 29 35 12 1505 25001 44213 35% 4 136168 20228 13%
c d 14.30 29 35 12 1505 25001 44213 35% 4 136158 20223 13%
c i 14.30 29 35 12 1505 25001 44213 35% 4 136158 20223 13%
c - 14.68 29 33 13 1681 27308 18114 35% 4 136136 20223 13%
c W 14.87 29 33 13 1732 28010 18744 36% 4 136135 20223 13%
c } 14.91 29 33 13 1747 28169 18886 36% 4 136135 20223 13%
c [ 14.91 29 55 13 1747 28169 18886 51% 8 136135 20223 13%
c
c  seconds  reductions      redundant  irredundant
c         MB     restarts          trail       variables
c          level      conflicts       glue          remaining
c
c - 15.70 29 49 14 1749 31508 15794 59% 8 136135 20223 13%
c ] 16.80 29 41 14 1752 35617 19530 54% 7 136135 20223 13%
c { 16.80 29 33 14 1752 35617 19530 36% 4 136135 20223 13%
c - 16.93 29 33 15 1851 36011 13541 35% 4 136134 20223 13%
c I 16.94 29 33 15 1852 36012 13542 35% 4 136134 20223 13%
c i 17.16 29 32 15 1974 36992 14436 35% 4 136133 20222 13%
c 2 17.36 29 32 15 2115 37501 14912 35% 4 136077 20221 13%
c s 17.37 29 32 15 2115 37501 14912 35% 4 135474 20221 13%
c e 17.42 24 32 15 2115 37501 14912 35% 4 132690 19621 12%
c 2 17.42 24 32 15 2115 37501 14912 35% 4 132673 19620 12%
c s 17.43 24 32 15 2115 37501 14912 35% 4 132458 19620 12%
c e 17.45 24 32 15 2115 37501 14912 35% 4 132082 19518 12%
c d 17.47 25 32 15 2115 37501 13274 35% 4 131990 19475 12%
c 3 17.58 26 32 15 2115 37501 32850 35% 4 131979 19475 12%
c t 17.60 26 32 15 2115 37501 32565 35% 4 131700 19474 12%
c f 17.63 27 32 15 2115 37501 49420 35% 4 131695 19438 12%
c u 17.70 27 32 15 2115 37501 49379 35% 4 131695 19438 12%
c v 17.73 27 32 15 2115 37501 49310 35% 4 131695 19438 12%
c w 17.84 29 32 15 2115 37501 49322 35% 4 131019 19438 12%
c d 17.85 29 32 15 2115 37501 48738 35% 4 130780 19319 12%
c
c  seconds  reductions      redundant  irredundant
c         MB     restarts          trail       variables
c          level      conflicts       glue          remaining
c
c d 17.86 29 32 15 2115 37501 48736 35% 4 130778 19318 12%
c i 17.86 29 32 15 2115 37501 48736 35% 4 130778 19318 12%
c - 18.91 30 31 16 2827 40812 14841 35% 4 130701 19318 12%
c B 20.02 30 30 16 3457 45013 18723 35% 4 130699 19318 12%
c - 20.25 30 30 17 3586 45913 16725 35% 4 130698 19318 12%
c - 21.92 30 29 18 4658 51315 19052 34% 5 130693 19318 12%
c d 22.29 30 28 18 4862 52502 20016 34% 5 130573 19270 12%
c d 22.29 30 28 18 4862 52502 19990 34% 5 130568 19268 12%
c 3 22.43 26 28 18 4862 52502 42459 34% 5 130561 19268 12%
c t 22.45 26 28 18 4862 52502 42411 34% 5 130417 19267 12%
c f 22.49 28 28 18 4862 52502 69770 34% 5 130412 19234 12%
c u 22.57 28 28 18 4862 52502 69405 34% 5 130287 19234 12%
c v 22.60 28 28 18 4862 52502 69330 34% 5 130287 19234 12%
c w 22.72 30 28 18 4862 52502 69336 34% 5 129593 19234 12%
c d 22.73 30 28 18 4862 52502 68966 34% 5 129373 19139 12%
c d 22.74 30 28 18 4862 52502 68964 34% 5 129369 19137 12%
c i 22.74 30 28 18 4862 52502 68964 34% 5 129369 19137 12%
c } 22.77 30 29 18 4874 52618 69056 34% 5 129369 19137 12%
c [ 22.77 30 41 18 4874 52618 69056 54% 7 129369 19137 12%
c W 23.51 30 37 18 4876 55014 70910 50% 7 129300 19137 12%
c
c  seconds  reductions      redundant  irredundant
c         MB     restarts          trail       variables
c          level      conflicts       glue          remaining
c
c - 24.00 31 39 19 4877 57016 30395 54% 7 129291 19137 12%
c - 25.32 31 41 20 4880 63017 29259 63% 8 129291 19137 12%
c # 26.04 31 42 20 4881 66016 32012 66% 8 129291 19137 12%
c i 26.05 31 42 20 4882 66090 32078 66% 8 129291 19136 12%
c - 26.78 31 39 21 4884 69318 24068 61% 8 129278 19136 12%
c d 26.93 26 39 21 4884 70002 24602 61% 8 129188 19126 12%
c d 26.94 26 39 21 4884 70002 24602 61% 8 129182 19124 12%
c 3 27.11 27 39 21 4884 70002 49668 61% 8 129156 19124 12%
c t 27.14 27 39 21 4884 70002 49042 61% 8 129004 19123 12%
c f 27.17 28 39 21 4884 70002 63245 61% 8 129004 19122 12%
c u 27.28 29 39 21 4884 70002 63012 61% 8 129004 19122 12%
c v 27.31 29 39 21 4884 70002 62928 61% 8 129004 19122 12%
c w 27.43 30 39 21 4884 70002 63093 61% 8 127796 19121 12%
c d 27.44 30 39 21 4884 70002 62963 61% 8 127713 19082 12%
c i 27.45 31 39 21 4884 70002 62963 61% 8 127713 19082 12%
c 2 28.83 31 36 21 4887 75002 67382 58% 8 127676 19082 12%
c s 28.84 31 36 21 4887 75002 67382 58% 8 127170 19082 12%
c e 28.90 25 36 21 4887 75002 67382 58% 8 126188 18462 12%
c 2 28.90 25 36 21 4887 75002 67382 58% 8 126186 18462 12%
c s 28.91 25 36 21 4887 75002 67382 58% 8 126038 18462 12%
c
c  seconds  reductions      redundant  irredundant
c         MB     restarts          trail       variables
c          level      conflicts       glue          remaining
c
c e 28.92 25 36 21 4887 75002 67382 58% 8 125972 18447 12%
c - 29.15 28 36 22 4887 75919 25393 58% 8 125972 18447 12%
c ] 29.40 28 36 22 4887 77339 26677 56% 8 125972 18447 12%
c { 29.40 28 29 22 4887 77339 26677 34% 5 125972 18447 12%
c B 29.59 29 28 22 5043 78017 27295 34% 5 125972 18447 12%
c i 30.04 29 28 22 5343 79598 28681 33% 5 125972 18445 12%
c i 30.04 29 28 22 5343 79599 28681 33% 5 125972 18443 12%
c - 31.41 30 28 23 6225 82821 24770 33% 5 125960 18443 12%
c d 34.60 30 27 23 8115 90002 31100 33% 6 125738 18408 12%
c d 34.60 30 27 23 8115 90002 31093 33% 6 125727 18403 12%
c 3 34.81 28 27 23 8115 90002 57278 33% 6 125717 18403 12%
c t 34.83 28 27 23 8115 90002 57086 33% 6 125574 18403 12%
c f 34.86 29 27 23 8115 90002 76794 33% 6 125574 18383 12%
c u 35.05 29 27 23 8115 90002 76376 33% 6 125574 18383 12%
c v 35.09 30 27 23 8115 90002 76759 33% 6 125574 18383 12%
c w 35.22 31 27 23 8115 90002 77013 33% 6 124615 18383 12%
c d 35.23 31 27 23 8115 90002 76674 33% 6 124530 18337 12%
c i 35.25 31 27 23 8115 90002 76674 33% 6 124530 18337 12%
c - 35.26 31 27 24 8119 90021 29412 33% 6 124497 18337 12%
c W 35.84 31 26 24 8366 91019 30324 33% 6 124497 18337 12%
c
c  seconds  reductions      redundant  irredundant
c         MB     restarts          trail       variables
c          level      conflicts       glue          remaining
c
c i 36.10 31 26 24 8436 91641 30802 33% 6 124497 18238 11%
c i 36.36 31 26 24 8489 92266 31268 33% 6 124497 18021 11%
c i 36.40 31 26 24 8489 92362 31333 33% 6 124497 17822 11%
c i 36.41 31 26 24 8489 92393 31351 33% 6 124497 17526 11%
c i 36.42 31 26 24 8489 92402 31358 33% 6 124497 16864 11%
c i 36.42 31 26 24 8489 92407 31362 33% 6 124497 15740 10%
c } 36.42 31 26 24 8489 92411 31364 33% 6 124497 10248 6%
c 0 36.42 31 26 24 8489 92411 31364 33% 6 124497 10248 6%
c
c ---- [ result ] ------------------------------------------------------------
c
s UNSATISFIABLE
c
c ---- [ profiling ] ---------------------------------------------------------
c
c          29.64   81.38 %  search
c          17.98   49.36 %  focused
c          11.66   32.02 %  stable
c           6.66   18.28 %  simplify
c           4.64   12.73 %  probe
c           2.27    6.23 %  vivify
c           1.41    3.88 %  eliminate
c           0.88    2.40 %  ternary
c           0.68    1.86 %  failed
c           0.64    1.75 %  substitute
c           0.40    1.09 %  walking
c           0.25    0.67 %  reduce
c           0.21    0.57 %  autarky
c           0.18    0.49 %  transitive
c           0.12    0.34 %  parse
c =============================================
c          36.42  100.00 %  total
c
c ---- [ statistics ] --------------------------------------------------------
c
c conflicts:                            92411             2537.18 per second
c decisions:                           382766                4.14 per conflict
c propagations:                     254041821          6974805    per second
c reductions:                              24             3850    interval
c rephased:                                13             7109    interval
c restarts:                              8489               10.89 interval
c
c ---- [ resources ] ---------------------------------------------------------
c
c maximum-resident-set-size:         48119808 bytes         46 MB
c process-time:                            36s              36.42 seconds
c
c ---- [ shutting down ] -----------------------------------------------------
c
c exit 20

SAT solver OK

VALID
c array.sh: end:      Tue Feb 16 22:30:54 CET 2021
